p cnf 66 247
3 -1 0
3 -2 0
1 2 -3 0
6 -4 0
6 5 0
4 -5 -6 0
6 7 -8 0
-6 -7 -8 0
6 -7 8 0
-6 7 8 0
11 -9 0
11 10 0
9 -10 -11 0
-13 -12 0
-13 -4 0
12 4 13 0
-14 -13 0
-14 13 0
1 -15 -16 0
-1 15 -16 0
1 15 16 0
-1 -15 16 0
-17 14 0
-17 -16 0
-14 16 17 0
11 -17 -18 0
-11 17 -18 0
11 17 18 0
-11 -17 18 0
12 -17 -19 0
-12 17 -19 0
12 17 19 0
-12 -17 19 0
19 14 -20 0
-19 -14 -20 0
19 -14 20 0
-19 14 20 0
21 -18 0
21 -20 0
18 20 -21 0
-12 2 -22 0
12 -2 -22 0
-12 -2 22 0
12 2 22 0
-23 16 0
-23 -22 0
-16 22 23 0
23 10 -24 0
-23 -10 -24 0
23 -10 24 0
-23 10 24 0
25 21 0
25 -24 0
-21 24 -25 0
26 8 0
26 25 0
-8 -25 -26 0
-27 3 0
-27 -26 0
-3 26 27 0
28 -8 0
28 18 0
8 -18 -28 0
15 2 -29 0
-15 -2 -29 0
15 -2 29 0
-15 2 29 0
-30 13 0
-30 -8 0
-13 8 30 0
-30 6 -31 0
30 -6 -31 0
-30 -6 31 0
30 6 31 0
-32 29 0
-32 -31 0
-29 31 32 0
33 -28 0
33 -32 0
28 32 -33 0
34 -28 0
34 -33 0
28 33 -34 0
16 -34 -35 0
-16 34 -35 0
16 34 35 0
-16 -34 35 0
36 27 0
36 -35 0
-27 35 -36 0
16 37 -38 0
-16 -37 -38 0
16 -37 38 0
-16 37 38 0
-32 -16 -39 0
32 16 -39 0
-32 16 39 0
32 -16 39 0
40 38 0
40 39 0
-38 -39 -40 0
-41 -32 0
-41 -17 0
32 17 41 0
30 -41 -42 0
-30 41 -42 0
30 41 42 0
-30 -41 42 0
-43 -16 0
-43 42 0
16 -42 43 0
-44 -40 0
-44 -43 0
40 43 44 0
-45 8 0
-45 -16 0
-8 16 45 0
-22 45 -46 0
22 -45 -46 0
-22 -45 46 0
22 45 46 0
47 13 0
47 -10 0
-13 10 -47 0
-48 -30 0
-48 -45 0
30 45 48 0
49 -47 0
49 -48 0
47 48 -49 0
-46 -49 -50 0
46 49 -50 0
-46 49 50 0
46 -49 50 0
-51 44 0
-51 -50 0
-44 50 51 0
12 7 -52 0
-12 -7 -52 0
12 -7 52 0
-12 7 52 0
53 -10 0
53 -7 0
10 7 -53 0
-54 1 0
-54 -10 0
-1 10 54 0
55 -53 0
55 -54 0
53 54 -55 0
56 6 0
56 48 0
-6 -48 -56 0
57 -22 0
57 7 0
22 -7 -57 0
-29 57 -58 0
29 -57 -58 0
-29 -57 58 0
29 57 58 0
59 22 0
59 -24 0
-22 24 -59 0
-59 33 -60 0
59 -33 -60 0
-59 -33 60 0
59 33 60 0
-58 -60 -61 0
58 60 -61 0
-58 60 61 0
58 -60 61 0
62 -56 0
62 -61 0
56 61 -62 0
-55 62 -63 0
55 -62 -63 0
-55 -62 63 0
55 62 63 0
-64 -52 0
-64 -63 0
52 63 64 0
-51 64 -65 0
51 -64 -65 0
-51 -64 65 0
51 64 65 0
36 65 -66 0
-36 -65 -66 0
36 -65 66 0
-36 65 66 0
13 14 -30 -41 0
-59 -41 -62 -33 39 -63 0
1 57 0
-38 -66 -46 -37 -12 0
34 -21 60 0
-58 -35 -10 3 -63 33 0
17 -7 58 -31 0
-17 22 0
25 -60 36 -43 0
41 18 17 0
-16 31 -36 34 0
-55 14 0
-42 -17 -66 0
21 38 -15 56 -23 0
26 -66 0
12 24 -11 0
50 31 58 32 -46 0
36 34 0
34 39 46 28 0
-1 -61 33 42 -22 0
4 3 0
28 -27 -57 46 0
52 -27 0
-55 3 -38 -53 0
65 -48 -37 0
-32 -11 -7 57 -21 0
50 23 62 -10 -2 -9 0
-7 23 0
54 8 48 35 0
39 -18 -25 0
32 -34 -57 38 0
-55 49 -10 56 24 0
-21 35 -16 -24 48 0
39 60 -18 -1 33 -26 0
11 44 0
49 -24 37 -57 -17 0
16 -56 -18 19 22 -29 0
42 20 65 6 0
-5 -42 59 0
-66 47 -38 59 -31 5 0
13 39 0
-45 17 66 41 -40 0
2 60 0
48 56 36 -65 0
-19 -45 -66 24 0
-10 4 -43 8 20 0
42 57 -55 0
-18 30 1 0
28 -62 11 -2 0
-13 -23 42 0
-66 -34 36 19 20 0
44 -60 25 -59 28 0
8 -37 -48 -10 0
57 58 -66 -60 0
-39 -7 0
-42 1 -10 20 -47 0
-6 57 -64 -28 -38 36 0
66 0
